
ROCKS----1----*----2----*----3----*----4----*----5----*----6----*----7----*----8   
WATER    2    2600.0      0.44   4.31E-9   4.09E-9   4.09E-9       2.0    1000.0
       0.0
   12          0.320     0.010     0.010     3.000
    8     
ROCKG    2    2600.0      0.46   4.31E-9   4.09E-9   4.09E-9       2.0    1000.0
       0.0
   12          0.100     0.060     0.060     3.000
    8     
ROCKF    2    2600.0      0.43   1.92E-9    1.7E-9    1.7E-9       2.0    1000.0
       0.0
   12          0.120     0.130     0.130     3.000
    8     
ROCKE    2    2600.0      0.45  9.02E-10  8.87E-10  8.87E-10       2.0    1000.0
       0.0
   12          0.120     0.060     0.060     3.000
    8     
ROCKD    2    2600.0      0.44   5.0E-10  4.87E-10  4.87E-10       2.0    1000.0
       0.0
   12          0.120     0.080     0.080     3.000
    8     
ROCKC    2    2600.0      0.43  2.13E-10  1.93E-10  1.93E-10       2.0    1000.0
       0.0
   12          0.140     0.100     0.100     3.000
    8     
ROESF    2    2600.0      0.44  1.98E-15  1.68E-15  1.68E-15       2.0    1000.0
       0.0
   12          0.320     0.140     0.140     3.000
    8     
BARRI    2    2600.0      0.44   4.5E-16   4.0E-16   4.0E-16       2.0    1000.0
       0.0
   12          0.320     0.140     0.140     3.000
    8

MULTI----1----*----2----*----3----*----4----*----5----*----6----*----7----*----8
    3    4    4    6
SELEC....2....3....4....5....6....7....8....9...10...11...12...13...14...15...16
    1    0    0    0    0    0    0    0    3    0    0    0    0    0    0    0
       0.8       0.8     0.001
START----1----*----2----*----3----*----4----*----5----*----6----*----7----*----8
----*----1-MOP: 123456789*123456789*1234----*----5----*----6----*----7----*----8
PARAM----1----*----2----*----3----*----4----*----5----*----6----*----7----*----8
   29999    99991000300000000  4    3 
        0.  4.3200e5       -1.                          9.81
        1.
     1.E-3     1.e00
           1.01325e5                0.00                0.00                 20.
TIMES----1----*----2----*----3----*----4----*----5----*----6----*----7----*----8
   19
1.0000e+007.2000e+031.4400e+041.8000e+042.1600e+042.8800e+043.6000e+044.3200e+04
7.2000e+048.6400e+041.2960e+051.4400e+051.7280e+052.1600e+052.5920e+052.8800e+05
3.4560e+053.6000e+054.3200e+05
GENER----1----*----2----*----3----*----4----*----5----*----6----*----7----*----8
INC 1inj 1                   4     COM31
   0.00000E+00   0.18000E+05   0.18001E+05   0.43200E+06
   0.30700E-06   0.30700E-06   0.00000E+00   0.00000E+00
   3.50000E+05   3.50000E+05   3.50000E+05   3.50000E+05
INC 2inj 2                   6     COM31
   0.00000E+00   0.80990E+04   0.81000E+04   0.18000E+05
   0.18001E+05   0.43200E+06
   0.00000E+00   0.00000E+00   0.30700E-06   0.30700E-06
   0.00000E+00   0.00000E+00
   3.50000E+05   3.50000E+05   3.50000E+05   3.50000E+05
   3.50000E+05   3.50000E+05

OUTPU----1----*----2----*----3----*----4----*----5----*----6----*----7----*----8
2
SATURATION              1
COORDINATE

ENDCY----1----*----2----*----3----*----4----*----5----*----6----*----7----*----8



WATER    2    2600.0      0.44   4.31E-9   4.09E-9   4.09E-9       2.0    1000.0
       0.0
    7          0.850     0.320     1.000     0.010
    7          0.850     0.320     0.100   1.0E+04     1.000
ROCKG    2    2600.0      0.46   4.31E-9   4.09E-9   4.09E-9       2.0    1000.0
       0.0
    7          0.850     0.100     1.000     0.060
    7          0.850     0.100     0.100   1.0E+04     1.000
ROCKF    2    2600.0      0.43   1.92E-9    1.7E-9    1.7E-9       2.0    1000.0
       0.0
    7          0.850     0.120     1.000     0.130
    7          0.850     0.120     0.100   1.0E+04     1.000
ROCKE    2    2600.0      0.45  9.02E-10  8.87E-10  8.87E-10       2.0    1000.0
       0.0
    7          0.850     0.120     1.000     0.060
    7          0.850     0.120     0.100   1.0E+04     1.000
ROCKD    2    2600.0      0.44   5.0E-10  4.87E-10  4.87E-10       2.0    1000.0
       0.0
    7          0.850     0.120     1.000     0.080
    7          0.850     0.120     0.100   1.0E+04     1.000
ROCKC    2    2600.0      0.43  2.13E-10  1.93E-10  1.93E-10       2.0    1000.0
       0.0
    7          0.850     0.140     1.000     0.100
    7          0.850     0.140     0.100   1.0E+04     1.000
ROESF    2    2600.0      0.44  1.98E-15  1.68E-15  1.68E-15       2.0    1000.0
       0.0
    7          0.750     0.320     1.000     0.140
    7          0.750     0.320   1.0E-03   5.0E+04     1.000
BARRI    2    2600.0      0.44   4.5E-16   4.0E-16   4.0E-16       2.0    1000.0
       0.0
    7          0.750     0.320     1.000     0.140
    7          0.750     0.320   1.0E-03   5.0E+04     1.000