
ROCKS----1----*----2----*----3----*----4----*----5----*----6----*----7----*----8
ROCKA    2    2600.0      0.44   4.2E-14   4.2E-14   4.2E-15       2.0    1000.0
       0.0
   12          0.300     0.010     0.010     3.000
    8     
ROCKB    2    2600.0      0.44    4.2E-9    4.2E-9   4.2E-10       2.0    1000.0
       0.0
   12          0.300     0.010     0.010     3.000
    8     

MULTI----1----*----2----*----3----*----4----*----5----*----6----*----7----*----8
    3    4    4    6
SELEC....2....3....4....5....6....7....8....9...10...11...12...13...14...15...16
    1    0    0    0    0    0    0    0    3    0    0    0    0    0    0    0
       0.8       0.8     0.001      0.01
START----1----*----2----*----3----*----4----*----5----*----6----*----7----*----8
----*----1-MOP: 123456789*123456789*1234----*----5----*----6----*----7----*----8
PARAM----1----*----2----*----3----*----4----*----5----*----6----*----7----*----8
   29999    99991000300000000  4    3 
            3.1536E9       -1.                         9.81
      1.e2
     1.e-3
    1
              100.e5                 0.0                 0.0                 40.
TIMES----1----*----2----*----3----*----4----*----5----*----6----*----7----*----8
   14
  3.1536E7  6.3072E7  9.4608E7 1.26144E8  1.5768E8 1.89216E8 2.20752E8 2.52288E8
 2.83824E8  3.1536E8  6.3072E8  9.4608E8 1.26144E9  1.5768E9 
GENER----1----*----2----*----3----*----4----*----5----*----6----*----7----*----8
A6N54inj 1                         COM3    0.1e+010.5436E+06


OUTPU----1----*----2----*----3----*----4----*----5----*----6----*----7----*----8
2
SATURATION              1
COORDINATE

ENDCY----1----*----2----*----3----*----4----*----5----*----6----*----7----*----8
A6N54
